!HF DEF2-SVP
* xyz 0 1
H  0.0  0.0  0.0
H  0.0  0.0  0.9
*
