 SYSTEM = SnO2

 NWRITE = 2; LPETIM=F 
 PREC = medium 
 ISTART = 0 
 ICHARG = 2
 ISPIN = 1 

 ENCUT  = 480
 
 NELM = 90; NELMIN= 8; NELMDL= 10 # of ELM steps
 EDIFF = 0.1E-03 stopping-criterion for ELM
 LREAL = .FALSE. 

 EDIFFG = 0.1E-02 stopping-criterion for IOM
 NSW = 0 number of steps for IOM
 IBRION = 2 ionic relax: 0-MD 1-quasi-New 2-CG
 ISIF = 2 stress and relaxation

 POTIM = 0.10 time-step for ionic-motion
 TEIN = 0.0 initial temperature
 TEBEG = 0.0; TEEND = 0.0 temperature during run

 ISMEAR = 0 ; SIGMA = 0.10 broadening in eV -4-tet -1-fermi 0-gaus

 LWAVE = T write WAVECAR
 LCHARG = T write CHGCAR



 NCORE = 4
 
