Automatic mesh
0
Monkhorst-Pack
8 8 16
1 1 1