on-lattice-generated POSCAR             
1.00000000000000 
   0.989189687   0.000000000   0.000000000
   0.000000000   0.989189687   0.000000000
   0.000000000   0.000000000   0.634961507
Sn O
2 3
Direct
0.000000000   0.000000000   0.000000000
0.500000000   0.500000000   0.500000000
0.303875023   0.303875023   0.000000000
0.696124977   0.696124977   0.000000000
0.196124977   0.803875023   0.500000000
0.803875023   0.196124977   0.500000000