!B3LYP DEF2-SVP Freq
* xyz 0 1   
C       -0.877758000     -0.745566000     -1.528263000
C       -1.693562000     -0.449057000     -0.339976000
C        0.366164000     -0.303588000     -1.770356000
C       -1.235996000     -0.137588000      0.882696000
H        0.902742000     -0.592336000     -2.678104000
H        0.885077000      0.369701000     -1.080474000
H       -1.360979000     -1.376860000     -2.284822000
H       -2.779327000     -0.512909000     -0.487493000
H       -0.165386000     -0.106731000      1.108760000
H       -1.922331000      0.085479000      1.704285000
*